-1 0 1 8 3 2 7 8 4 6 0 4 1 9 -1 
-1 5 5 3 5 3 4 0 0 3 3 9 5 3 7 -1 3 0 1 -1 
-1 9 9 3 7 7 1 0 2 8 2 0 3 2 -1 3 0 5 9 4 5 9 -1 
9 3 1 8 6 3 7 4 0 3 4 1 0 2 2 1 5 -1 
5 9 8 1 1 3 7 5 2 7 -1 6 6 5 0 0 7 2 2 5 -1 
2 2 7 3 0 5 2 4 4 3 2 4 4 2 -1 
6 4 1 1 3 1 8 3 -1 5 1 9 6 9 9 6 -1 
8 6 5 6 6 2 4 5 6 5 6 1 2 2 5 7 7 4 9 4 1 7 2 2 -1 
8 9 2 7 0 1 5 1 0 4 1 4 1 -1 1 7 6 4 9 4 0 1 -1 
8 0 7 6 0 0 0 1 9 0 1 4 2 -1 9 -1 8 7 -1 
